% Logging successfully configured
%%%mzn-stat: initTime=0.149141321
%%%mzn-stat: objective=513
%%%mzn-stat: nodes=83
%%%mzn-stat: restarts=0
%%%mzn-stat: peakDepth=81
%%%mzn-stat: solveTime=0.000386953
%%%mzn-stat: variables=210
%%%mzn-stat: propagators=320
%%%mzn-stat: failures=2
%%%mzn-stat: propagations=1238
%%%mzn-stat: nogoods=2
%%%mzn-stat: numAtomicConstraintsPropagated=0
%%%mzn-stat: circuitNumber191PropagationsThatFoundConflict=0
%%%mzn-stat: circuitNumber191TotalFixedEdgesAtConflict=0
%%%mzn-stat: circuitNumber191NumberOfConflicts=0
%%%mzn-stat: circuitNumber191PropagationsThatPruned=3
%%%mzn-stat: circuitNumber191PropagationsTotal=15
%%%mzn-stat: AverageConflictSize=2
%%%mzn-stat: NumUnitNogoodsLearned=0
%%%mzn-stat: AverageLearnedNogoodLength=11
%%%mzn-stat: AverageBacktrackAmount=0
%%%mzn-stat: AverageLbd=7.5
%%%mzn-stat: 2AutonomousSearchNumBackupCalled=70
%%%mzn-stat: 2AutonomousSearchNumPredicatesRemoved=0
%%%mzn-stat: 2AutonomousSearchNumCalls=71
%%%mzn-stat: 2AutonomousSearchNumPredicatesAdded=121
%%%mzn-stat: 2AutonomousSearchAverageSizeOfHeap=1.704225352112676
%%%mzn-stat: 2AutonomousSearchNumAssignedPredicatesEncountered=121
%%%mzn-stat-end
maxleg = 513;
succ = array1d(1..20,[3, 11, 4, 5, 15, 9, 1, 7, 10, 17, 20, 13, 19, 16, 2, 18, 8, 6, 14, 12]);
% time elapsed: 13.50 s
----------
%%%mzn-stat: initTime=0.149141321
%%%mzn-stat: objective=459
%%%mzn-stat: nodes=176
%%%mzn-stat: restarts=0
%%%mzn-stat: peakDepth=82
%%%mzn-stat: solveTime=0.001547678
%%%mzn-stat: variables=210
%%%mzn-stat: propagators=320
%%%mzn-stat: failures=14
%%%mzn-stat: propagations=4000
%%%mzn-stat: nogoods=14
%%%mzn-stat: numAtomicConstraintsPropagated=0
%%%mzn-stat: circuitNumber191PropagationsThatFoundConflict=6
%%%mzn-stat: circuitNumber191TotalFixedEdgesAtConflict=120
%%%mzn-stat: circuitNumber191NumberOfConflicts=6
%%%mzn-stat: circuitNumber191PropagationsThatPruned=12
%%%mzn-stat: circuitNumber191PropagationsTotal=50
%%%mzn-stat: AverageConflictSize=9.714285714285714
%%%mzn-stat: NumUnitNogoodsLearned=0
%%%mzn-stat: AverageLearnedNogoodLength=11.5
%%%mzn-stat: AverageBacktrackAmount=0
%%%mzn-stat: AverageLbd=8.642857142857142
%%%mzn-stat: 2AutonomousSearchNumBackupCalled=140
%%%mzn-stat: 2AutonomousSearchNumPredicatesRemoved=0
%%%mzn-stat: 2AutonomousSearchNumCalls=142
%%%mzn-stat: 2AutonomousSearchNumPredicatesAdded=453
%%%mzn-stat: 2AutonomousSearchAverageSizeOfHeap=3.1901408450704225
%%%mzn-stat: 2AutonomousSearchNumAssignedPredicatesEncountered=453
%%%mzn-stat-end
maxleg = 459;
succ = array1d(1..20,[3, 11, 4, 5, 15, 9, 1, 17, 10, 8, 7, 13, 19, 16, 12, 18, 20, 6, 14, 2]);
% time elapsed: 13.50 s
----------
==========
% time elapsed: 13.50 s
%%%mzn-stat: initTime=0.149141321
%%%mzn-stat: objective=459
%%%mzn-stat: nodes=416
%%%mzn-stat: restarts=0
%%%mzn-stat: peakDepth=82
%%%mzn-stat: solveTime=0.014700156
%%%mzn-stat: variables=210
%%%mzn-stat: propagators=320
%%%mzn-stat: failures=215
%%%mzn-stat: propagations=32250
%%%mzn-stat: nogoods=215
%%%mzn-stat: numAtomicConstraintsPropagated=0
%%%mzn-stat: circuitNumber191PropagationsThatFoundConflict=43
%%%mzn-stat: circuitNumber191TotalFixedEdgesAtConflict=610
%%%mzn-stat: circuitNumber191NumberOfConflicts=43
%%%mzn-stat: circuitNumber191PropagationsThatPruned=90
%%%mzn-stat: circuitNumber191PropagationsTotal=349
%%%mzn-stat: AverageConflictSize=4.948837209302326
%%%mzn-stat: NumUnitNogoodsLearned=1
%%%mzn-stat: AverageLearnedNogoodLength=9.483720930232558
%%%mzn-stat: AverageBacktrackAmount=0
%%%mzn-stat: AverageLbd=4.786046511627907
%%%mzn-stat: 2AutonomousSearchNumBackupCalled=140
%%%mzn-stat: 2AutonomousSearchNumPredicatesRemoved=0
%%%mzn-stat: 2AutonomousSearchNumCalls=142
%%%mzn-stat: 2AutonomousSearchNumPredicatesAdded=1052
%%%mzn-stat: 2AutonomousSearchAverageSizeOfHeap=3.1901408450704225
%%%mzn-stat: 2AutonomousSearchNumAssignedPredicatesEncountered=453
%%%mzn-stat-end
